8
0, 692, 525, 946, 301, 861, 678, 810
692, 0, 548, 271, 674, 441, 438, 475
525, 548, 0, 678, 273, 413, 211, 334
946, 271, 678, 0, 873, 380, 497, 457
301, 674, 273, 873, 0, 674, 473, 603
861, 441, 413, 380, 674, 0, 202, 90
678, 438, 211, 497, 473, 202, 0, 132
810, 475, 334, 457, 603, 90, 132, 0
